Cars = 1..200;
Options = 1..5;
Classes = 1..26;
sequenceMinCapacity = [0, 0, 0, 0, 0];
sequenceMaxCapacity = [1, 2, 1, 2, 1];
sequenceSize = [2, 3, 3, 5, 5];
numOrdered = [3, 2, 36, 8, 1, 5, 15, 24, 16, 4, 6, 6, 7, 6, 6, 15, 2, 1, 3, 6, 12, 3, 1, 3, 2, 7];
classHasOption = [| true,  true, false, false,  true
                  | true, false,  true, false,  true
                  |false,  true, false, false, false
                  | true,  true, false,  true, false
                  |false,  true,  true, false,  true
                  | true,  true,  true, false, false
                  | true, false, false, false, false
                  | true,  true, false, false, false
                  |false, false,  true, false, false
                  | true, false,  true,  true, false
                  |false,  true, false, false,  true
                  |false, false, false, false,  true
                  |false,  true,  true, false, false
                  |false, false, false,  true,  true
                  | true, false, false,  true, false
                  |false,  true, false,  true, false
                  | true, false, false,  true,  true
                  |false, false,  true,  true,  true
                  | true, false, false, false,  true
                  | true, false,  true, false, false
                  |false, false, false,  true, false
                  |false, false,  true, false,  true
                  | true,  true,  true,  true, false
                  | true,  true, false,  true, false
                  |false,  true,  true, false, false
                  |false, false,  true, false, false|];
optionOrdering = [3, 5, 1, 4, 2];
